p cnf 2150 863
-1859 1997 0
-1997 1859 0
-1999 -2000 0
-1861 1999 0
-1862 2000 0
-1999 1861 0
-2000 1862 0
-2002 -2003 0
-1864 2002 0
-1865 2003 0
-2002 1864 0
-2003 1865 0
-2005 -2006 0
-2005 -2007 0
-2006 -2007 0
-1867 2005 0
-1868 2006 0
-1869 2007 0
-2005 1867 0
-2006 1868 0
-2007 1869 0
-2009 -2010 0
-1871 2009 0
-1872 2010 0
-2009 1871 0
-2010 1872 0
-2012 -2013 0
-2012 -2014 0
-2013 -2014 0
-1874 2012 0
-1875 2013 0
-1876 2014 0
-2012 1874 0
-2013 1875 0
-2014 1876 0
-2016 -2017 0
-1878 2016 0
-1879 2017 0
-2016 1878 0
-2017 1879 0
-2019 -2020 0
-2019 -2021 0
-2020 -2021 0
-1881 2019 0
-1882 2020 0
-1883 2021 0
-2019 1881 0
-2020 1882 0
-2021 1883 0
-2023 -2024 0
-1885 2023 0
-1886 2024 0
-2023 1885 0
-2024 1886 0
-2026 -2027 0
-2026 -2028 0
-2027 -2028 0
-1888 2026 0
-1889 2027 0
-1890 2028 0
-2026 1888 0
-2027 1889 0
-2028 1890 0
-2030 -2031 0
-1892 2030 0
-1893 2031 0
-2030 1892 0
-2031 1893 0
-2033 -2034 0
-2033 -2035 0
-2034 -2035 0
-1895 2033 0
-1896 2034 0
-1897 2035 0
-2033 1895 0
-2034 1896 0
-2035 1897 0
-2037 -2038 0
-1899 2037 0
-1900 2038 0
-2037 1899 0
-2038 1900 0
-2040 -2041 0
-2040 -2042 0
-2041 -2042 0
-1902 2040 0
-1903 2041 0
-1904 2042 0
-2040 1902 0
-2041 1903 0
-2042 1904 0
-2044 -2045 0
-1906 2044 0
-1907 2045 0
-2044 1906 0
-2045 1907 0
-2047 -2048 0
-2047 -2049 0
-2048 -2049 0
-1909 2048 0
-1910 2047 0
-1911 2049 0
-1912 2048 0
-2047 1910 0
-2048 1909 1912 0
-2049 1911 0
-2052 2057 2058 2059 2060 2061 0
-2057 -2058 0
-2057 -2059 0
-2057 -2060 0
-2057 -2061 0
-2058 -2059 0
-2058 -2060 0
-2058 -2061 0
-2059 -2060 0
-2059 -2061 0
-2060 -2061 0
-2052 2062 2063 2064 2065 2066 2067 2068 0
-2062 -2063 0
-2062 -2064 0
-2062 -2065 0
-2062 -2066 0
-2062 -2067 0
-2062 -2068 0
-2063 -2064 0
-2063 -2065 0
-2063 -2066 0
-2063 -2067 0
-2063 -2068 0
-2064 -2065 0
-2064 -2066 0
-2064 -2067 0
-2064 -2068 0
-2065 -2066 0
-2065 -2067 0
-2065 -2068 0
-2066 -2067 0
-2066 -2068 0
-2067 -2068 0
-2052 2069 2070 2071 2072 2073 2074 2075 2076 0
-2069 -2070 0
-2069 -2071 0
-2069 -2072 0
-2069 -2073 0
-2069 -2074 0
-2069 -2075 0
-2069 -2076 0
-2070 -2071 0
-2070 -2072 0
-2070 -2073 0
-2070 -2074 0
-2070 -2075 0
-2070 -2076 0
-2071 -2072 0
-2071 -2073 0
-2071 -2074 0
-2071 -2075 0
-2071 -2076 0
-2072 -2073 0
-2072 -2074 0
-2072 -2075 0
-2072 -2076 0
-2073 -2074 0
-2073 -2075 0
-2073 -2076 0
-2074 -2075 0
-2074 -2076 0
-2075 -2076 0
-2052 2056 0
-2052 2055 0
-2052 2054 0
-2051 -2052 0
-2073 -2054 1968 0
-2072 -2054 1942 0
-2074 -2054 1943 0
-2070 -2054 1962 0
-2069 -2054 1967 0
-2071 -2054 1959 0
-2075 -2054 1974 0
-2076 -2054 1949 0
-2060 -2062 -2055 1957 0
-2060 -2067 -2055 1965 0
-2060 -2063 -2055 1944 0
-2058 -2066 -2055 1945 0
-2060 -2068 -2055 1947 0
-2057 -2063 -2055 1948 0
-2059 -2063 -2055 1960 0
-2061 -2066 -2055 1976 0
-2059 -2068 -2055 1950 0
-2060 -2065 -2055 1951 0
-2059 -2066 -2055 1969 0
-2057 -2066 -2055 1961 0
-2061 -2067 -2055 1953 0
-2061 -2063 -2055 1977 0
-2057 -2067 -2055 1978 0
-2060 -2064 -2055 1971 0
-2058 -2063 -2055 1972 0
-2061 -2062 -2055 1955 0
-2061 -2064 -2055 1973 0
-2058 -2068 -2055 1964 0
-2061 -2068 -2055 1956 0
-2060 -2066 -2055 1975 0
-2057 -2068 -2055 1980 0
-2058 -2064 -2055 1981 0
-2057 -2064 -2055 1982 0
-2057 -2056 1814 0
-2060 -2056 1802 0
-2058 -2056 1799 0
-2061 -2056 1821 0
-2059 -2056 1813 0
-2052 -2057 -2072 0
-2052 -2057 -2075 0
-2052 -2057 -2069 0
-2052 -2059 -2074 0
-2052 -2059 -2072 0
-2052 -2059 -2075 0
-2052 -2059 -2071 0
-2052 -2059 -2069 0
-2052 -2061 -2072 0
-2052 -2061 -2075 0
-2052 -2058 -2074 0
-2052 -2058 -2072 0
-2052 -2058 -2075 0
-2052 -2058 -2069 0
-2052 -2060 -2075 0
-2052 -2057 -2062 0
-2052 -2057 -2065 0
-2052 -2059 -2062 0
-2052 -2059 -2065 0
-2052 -2059 -2064 0
-2052 -2059 -2067 0
-2052 -2061 -2065 0
-2052 -2058 -2062 0
-2052 -2058 -2065 0
-2052 -2058 -2067 0
-1940 2052 0
-1939 2051 0
-2051 1939 0
-2052 1940 0
-2077 2081 0
-2078 2081 0
-2079 -2081 0
-2080 -2081 0
-1942 2082 -2052 2072 0
-1942 2082 2052 0
1942 -2082 -2052 2061 0
1942 -2082 2052 0
-1943 2083 -2052 2074 0
-1943 2083 2052 0
1943 -2083 -2052 2058 0
1943 -2083 2052 0
-1944 2084 -2052 -2060 2063 0
-1944 2084 -2052 2060 0
-1944 2084 2052 0
1944 -2084 -2052 -2060 2070 0
1944 -2084 -2052 2060 0
1944 -2084 2052 0
-1945 2085 -2052 -2058 2066 0
-1945 2085 -2052 2058 0
-1945 2085 2052 0
1945 -2085 -2052 -2058 2073 0
1945 -2085 -2052 2058 0
1945 -2085 2052 0
-1947 2086 -2052 -2060 2068 0
-1947 2086 -2052 2060 0
-1947 2086 2052 0
1947 -2086 -2052 -2060 2076 0
1947 -2086 -2052 2060 0
1947 -2086 2052 0
-1948 2087 -2052 -2057 2063 0
-1948 2087 -2052 2057 0
-1948 2087 2052 0
1948 -2087 -2052 -2057 2070 0
1948 -2087 -2052 2057 0
1948 -2087 2052 0
-1949 2088 -2052 2076 0
-1949 2088 2052 0
1949 -2088 0
-1950 2089 -2052 -2059 2068 0
-1950 2089 -2052 2059 0
-1950 2089 2052 0
1950 -2089 -2052 -2059 2076 0
1950 -2089 -2052 2059 0
1950 -2089 2052 0
-1795 2090 0
1795 -2090 -2052 2068 0
1795 -2090 2052 0
-1951 2091 -2052 -2060 2065 0
-1951 2091 -2052 2060 0
-1951 2091 2052 0
1951 -2091 -2052 -2060 2072 0
1951 -2091 -2052 2060 0
1951 -2091 2052 0
-1953 2092 -2052 -2061 2067 0
-1953 2092 -2052 2061 0
-1953 2092 2052 0
1953 -2092 -2052 -2061 2074 0
1953 -2092 -2052 2061 0
1953 -2092 2052 0
-1799 2093 -2052 2058 0
-1799 2093 2052 0
1799 -2093 -2052 2067 0
1799 -2093 2052 0
-1955 2094 -2052 -2061 2062 0
-1955 2094 -2052 2061 0
-1955 2094 2052 0
1955 -2094 -2052 -2061 2069 0
1955 -2094 -2052 2061 0
1955 -2094 2052 0
-1802 2095 -2052 2060 0
-1802 2095 2052 0
1802 -2095 0
-1956 2096 -2052 -2061 2068 0
-1956 2096 -2052 2061 0
-1956 2096 2052 0
1956 -2096 -2052 -2061 2076 0
1956 -2096 -2052 2061 0
1956 -2096 2052 0
-1957 2097 -2052 -2060 2062 0
-1957 2097 -2052 2060 0
-1957 2097 2052 0
1957 -2097 -2052 -2060 2069 0
1957 -2097 -2052 2060 0
1957 -2097 2052 0
-1959 2098 -2052 2071 0
-1959 2098 2052 0
1959 -2098 -2052 2059 0
1959 -2098 2052 0
-1806 2099 0
1806 -2099 -2052 2066 0
1806 -2099 2052 0
-1960 2100 -2052 -2059 2063 0
-1960 2100 -2052 2059 0
-1960 2100 2052 0
1960 -2100 -2052 -2059 2070 0
1960 -2100 -2052 2059 0
1960 -2100 2052 0
-1961 2101 -2052 -2057 2066 0
-1961 2101 -2052 2057 0
-1961 2101 2052 0
1961 -2101 -2052 -2057 2073 0
1961 -2101 -2052 2057 0
1961 -2101 2052 0
-1962 2102 -2052 2070 0
-1962 2102 2052 0
1962 -2102 0
-1964 2103 -2052 -2058 2068 0
-1964 2103 -2052 2058 0
-1964 2103 2052 0
1964 -2103 -2052 -2058 2076 0
1964 -2103 -2052 2058 0
1964 -2103 2052 0
-1965 2104 -2052 -2060 2067 0
-1965 2104 -2052 2060 0
-1965 2104 2052 0
1965 -2104 -2052 -2060 2074 0
1965 -2104 -2052 2060 0
1965 -2104 2052 0
-1967 2105 -2052 2069 0
-1967 2105 2052 0
1967 -2105 -2052 2057 0
1967 -2105 2052 0
-1813 2106 -2052 2059 0
-1813 2106 2052 0
1813 -2106 -2052 2064 0
1813 -2106 2052 0
-1968 2107 -2052 2073 0
-1968 2107 2052 0
1968 -2107 0
-1814 2108 -2052 2057 0
-1814 2108 2052 0
1814 -2108 -2052 2062 0
1814 -2108 2052 0
-1969 2109 -2052 -2059 2066 0
-1969 2109 -2052 2059 0
-1969 2109 2052 0
1969 -2109 -2052 -2059 2073 0
1969 -2109 -2052 2059 0
1969 -2109 2052 0
-1971 2110 -2052 -2060 2064 0
-1971 2110 -2052 2060 0
-1971 2110 2052 0
1971 -2110 -2052 -2060 2071 0
1971 -2110 -2052 2060 0
1971 -2110 2052 0
-1972 2111 -2052 -2058 2063 0
-1972 2111 -2052 2058 0
-1972 2111 2052 0
1972 -2111 -2052 -2058 2070 0
1972 -2111 -2052 2058 0
1972 -2111 2052 0
-1973 2112 -2052 -2061 2064 0
-1973 2112 -2052 2061 0
-1973 2112 2052 0
1973 -2112 -2052 -2061 2071 0
1973 -2112 -2052 2061 0
1973 -2112 2052 0
-1974 2113 -2052 2075 0
-1974 2113 2052 0
1974 -2113 -2052 2060 0
1974 -2113 2052 0
-1975 2114 -2052 -2060 2066 0
-1975 2114 -2052 2060 0
-1975 2114 2052 0
1975 -2114 -2052 -2060 2073 0
1975 -2114 -2052 2060 0
1975 -2114 2052 0
-1821 2115 -2052 2061 0
-1821 2115 2052 0
1821 -2115 -2052 2065 0
1821 -2115 2052 0
-1976 2116 -2052 -2061 2066 0
-1976 2116 -2052 2061 0
-1976 2116 2052 0
1976 -2116 -2052 -2061 2073 0
1976 -2116 -2052 2061 0
1976 -2116 2052 0
-1977 2117 -2052 -2061 2063 0
-1977 2117 -2052 2061 0
-1977 2117 2052 0
1977 -2117 -2052 -2061 2070 0
1977 -2117 -2052 2061 0
1977 -2117 2052 0
-1978 2118 -2052 -2057 2067 0
-1978 2118 -2052 2057 0
-1978 2118 2052 0
1978 -2118 -2052 -2057 2074 0
1978 -2118 -2052 2057 0
1978 -2118 2052 0
-1825 2119 0
1825 -2119 -2052 2063 0
1825 -2119 2052 0
-1980 2120 -2052 -2057 2068 0
-1980 2120 -2052 2057 0
-1980 2120 2052 0
1980 -2120 -2052 -2057 2076 0
1980 -2120 -2052 2057 0
1980 -2120 2052 0
-1981 2121 -2052 -2058 2064 0
-1981 2121 -2052 2058 0
-1981 2121 2052 0
1981 -2121 -2052 -2058 2071 0
1981 -2121 -2052 2058 0
1981 -2121 2052 0
-1982 2122 -2052 -2057 2064 0
-1982 2122 -2052 2057 0
-1982 2122 2052 0
1982 -2122 -2052 -2057 2071 0
1982 -2122 -2052 2057 0
1982 -2122 2052 0
-2078 1958 0
-2078 2099 0
-2079 2133 2134 2135 2136 2137 2138 2139 2140 0
-2133 -2134 0
-2133 -2135 0
-2133 -2136 0
-2133 -2137 0
-2133 -2138 0
-2133 -2139 0
-2133 -2140 0
-2134 -2135 0
-2134 -2136 0
-2134 -2137 0
-2134 -2138 0
-2134 -2139 0
-2134 -2140 0
-2135 -2136 0
-2135 -2137 0
-2135 -2138 0
-2135 -2139 0
-2135 -2140 0
-2136 -2137 0
-2136 -2138 0
-2136 -2139 0
-2136 -2140 0
-2137 -2138 0
-2137 -2139 0
-2137 -2140 0
-2138 -2139 0
-2138 -2140 0
-2139 -2140 0
-2079 2141 2142 2143 2144 2145 0
-2141 -2142 0
-2141 -2143 0
-2141 -2144 0
-2141 -2145 0
-2142 -2143 0
-2142 -2144 0
-2142 -2145 0
-2143 -2144 0
-2143 -2145 0
-2144 -2145 0
-2079 2125 0
-2079 2132 0
-2080 2141 2142 2143 2144 2145 0
-2141 -2142 0
-2141 -2143 0
-2141 -2144 0
-2141 -2145 0
-2142 -2143 0
-2142 -2144 0
-2142 -2145 0
-2143 -2144 0
-2143 -2145 0
-2144 -2145 0
-2080 2133 2134 2135 2136 2137 2138 2139 2140 0
-2133 -2134 0
-2133 -2135 0
-2133 -2136 0
-2133 -2137 0
-2133 -2138 0
-2133 -2139 0
-2133 -2140 0
-2134 -2135 0
-2134 -2136 0
-2134 -2137 0
-2134 -2138 0
-2134 -2139 0
-2134 -2140 0
-2135 -2136 0
-2135 -2137 0
-2135 -2138 0
-2135 -2139 0
-2135 -2140 0
-2136 -2137 0
-2136 -2138 0
-2136 -2139 0
-2136 -2140 0
-2137 -2138 0
-2137 -2139 0
-2137 -2140 0
-2138 -2139 0
-2138 -2140 0
-2139 -2140 0
-2080 2129 0
-2080 2124 0
-2077 -2078 0
-2077 -2079 0
-2077 -2080 0
-2078 -2079 0
-2078 -2080 0
-2079 -2080 0
-2060 -2069 -2123 2097 0
-2060 -2074 -2123 2104 0
-2060 -2070 -2123 2084 0
-2058 -2073 -2123 2085 0
-2060 -2076 -2123 2086 0
-2057 -2070 -2123 2087 0
-2059 -2070 -2123 2100 0
-2061 -2073 -2123 2116 0
-2059 -2076 -2123 2089 0
-2060 -2072 -2123 2091 0
-2059 -2073 -2123 2109 0
-2057 -2073 -2123 2101 0
-2061 -2074 -2123 2092 0
-2061 -2070 -2123 2117 0
-2057 -2074 -2123 2118 0
-2060 -2071 -2123 2110 0
-2058 -2070 -2123 2111 0
-2061 -2069 -2123 2094 0
-2061 -2071 -2123 2112 0
-2058 -2076 -2123 2103 0
-2061 -2076 -2123 2096 0
-2060 -2073 -2123 2114 0
-2057 -2076 -2123 2120 0
-2058 -2071 -2123 2121 0
-2057 -2071 -2123 2122 0
-2134 -2124 1958 0
-2139 -2124 1952 0
-2140 -2124 1966 0
-2135 -2124 1946 0
-2138 -2124 1970 0
-2136 -2124 1954 0
-2137 -2124 1963 0
-2133 -2124 1979 0
-2141 -2125 1979 0
-2144 -2125 1952 0
-2143 -2125 1946 0
-2142 -2125 1970 0
-2145 -2125 1954 0
-2060 -2062 2126 -2097 0
-2060 -2067 2126 -2104 0
-2060 -2063 2126 -2084 0
-2058 -2066 2126 -2085 0
-2060 -2068 2126 -2086 0
-2057 -2063 2126 -2087 0
-2059 -2063 2126 -2100 0
-2061 -2066 2126 -2116 0
-2059 -2068 2126 -2089 0
-2060 -2065 2126 -2091 0
-2059 -2066 2126 -2109 0
-2057 -2066 2126 -2101 0
-2061 -2067 2126 -2092 0
-2061 -2063 2126 -2117 0
-2057 -2067 2126 -2118 0
-2060 -2064 2126 -2110 0
-2058 -2063 2126 -2111 0
-2061 -2062 2126 -2094 0
-2061 -2064 2126 -2112 0
-2058 -2068 2126 -2103 0
-2061 -2068 2126 -2096 0
-2060 -2066 2126 -2114 0
-2057 -2068 2126 -2120 0
-2058 -2064 2126 -2121 0
-2057 -2064 2126 -2122 0
-2057 2127 -2108 0
-2060 2127 -2095 0
-2058 2127 -2093 0
-2061 2127 -2115 0
-2059 2127 -2106 0
-2073 2128 -2107 0
-2072 2128 -2082 0
-2074 2128 -2083 0
-2070 2128 -2102 0
-2069 2128 -2105 0
-2071 2128 -2098 0
-2075 2128 -2113 0
-2076 2128 -2088 0
-2141 -2129 2108 0
-2144 -2129 2095 0
-2142 -2129 2093 0
-2145 -2129 2115 0
-2143 -2129 2106 0
-2062 -2130 2108 0
-2067 -2130 2093 0
-2063 -2130 2119 0
-2066 -2130 2099 0
-2065 -2130 2115 0
-2064 -2130 2106 0
-2068 -2130 2090 0
-2057 -2131 2105 0
-2061 -2131 2082 0
-2058 -2131 2083 0
-2059 -2131 2098 0
-2060 -2131 2113 0
-2133 -2132 2108 0
-2138 -2132 2093 0
-2134 -2132 2119 0
-2139 -2132 2095 0
-2137 -2132 2099 0
-2136 -2132 2115 0
-2135 -2132 2106 0
-2140 -2132 2090 0
-2052 2130 0
-2146 2069 -2062 0
-2146 -2069 2062 0
-2146 2070 -2063 0
-2146 -2070 2063 0
-2146 2071 -2064 0
-2146 -2071 2064 0
-2146 2072 -2065 0
-2146 -2072 2065 0
-2146 2073 -2066 0
-2146 -2073 2066 0
-2146 2074 -2067 0
-2146 -2074 2067 0
-2146 2076 -2068 0
-2146 -2076 2068 0
-2069 -2062 2146 0
-2070 -2063 2146 0
-2071 -2064 2146 0
-2072 -2065 2146 0
-2073 -2066 2146 0
-2074 -2067 2146 0
-2076 -2068 2146 0
-2075 -2146 0
-2147 2069 -2057 0
-2147 -2069 2057 0
-2147 2074 -2058 0
-2147 -2074 2058 0
-2147 2071 -2059 0
-2147 -2071 2059 0
-2147 2075 -2060 0
-2147 -2075 2060 0
-2147 2072 -2061 0
-2147 -2072 2061 0
-2069 -2057 2147 0
-2074 -2058 2147 0
-2071 -2059 2147 0
-2075 -2060 2147 0
-2072 -2061 2147 0
-2073 -2147 0
-2070 -2147 0
-2076 -2147 0
-2052 -2128 2147 0
-2148 2057 -2062 0
-2148 -2057 2062 0
-2148 2058 -2067 0
-2148 -2058 2067 0
-2148 2059 -2064 0
-2148 -2059 2064 0
-2148 2061 -2065 0
-2148 -2061 2065 0
-2057 -2062 2148 0
-2058 -2067 2148 0
-2059 -2064 2148 0
-2061 -2065 2148 0
-2060 -2148 0
-2066 -2148 0
-2063 -2148 0
-2068 -2148 0
-2052 -2127 2148 0
-2149 2062 -2069 0
-2149 -2062 2069 0
-2149 2063 -2070 0
-2149 -2063 2070 0
-2149 2064 -2071 0
-2149 -2064 2071 0
-2149 2065 -2072 0
-2149 -2065 2072 0
-2149 2066 -2073 0
-2149 -2066 2073 0
-2149 2067 -2074 0
-2149 -2067 2074 0
-2149 2068 -2076 0
-2149 -2068 2076 0
-2062 -2069 2149 0
-2063 -2070 2149 0
-2064 -2071 2149 0
-2065 -2072 2149 0
-2066 -2073 2149 0
-2067 -2074 2149 0
-2068 -2076 2149 0
-2075 -2149 0
-2052 -2126 2149 0
-2052 2123 0
-2052 2131 0
-2079 -2142 -2139 0
-2079 -2142 -2133 0
-2079 -2142 -2136 0
-2079 -2142 -2138 0
-2079 -2144 -2139 0
-2079 -2141 -2139 0
-2079 -2141 -2133 0
-2079 -2141 -2136 0
-2079 -2145 -2139 0
-2079 -2145 -2136 0
-2079 -2143 -2139 0
-2079 -2143 -2133 0
-2079 -2143 -2136 0
-2079 -2143 -2138 0
-2079 -2143 -2135 0
-2080 -2142 -2139 0
-2080 -2142 -2133 0
-2080 -2142 -2136 0
-2080 -2142 -2138 0
-2080 -2144 -2139 0
-2080 -2141 -2139 0
-2080 -2141 -2133 0
-2080 -2141 -2136 0
-2080 -2145 -2139 0
-2080 -2145 -2136 0
-2080 -2143 -2139 0
-2080 -2143 -2133 0
-2080 -2143 -2136 0
-2080 -2143 -2138 0
-2080 -2143 -2135 0
-1940 2078 2079 2080 0
-1939 2077 0
-2078 1940 0
-2079 1940 0
-2080 1940 0
-2077 1939 0
-2082 151 -2081 0
2082 -151 -2081 0
-2083 152 -2081 0
2083 -152 -2081 0
-2084 154 -2081 0
2084 -154 -2081 0
-2085 155 -2081 0
2085 -155 -2081 0
-1946 385 -2081 0
1946 -385 -2081 0
-2086 156 -2081 0
2086 -156 -2081 0
-2087 158 -2081 0
2087 -158 -2081 0
-2088 159 -2081 0
2088 -159 -2081 0
-2089 160 -2081 0
2089 -160 -2081 0
-2090 602 -2081 0
2090 -602 -2081 0
-2091 10 -2081 0
2091 -10 -2081 0
-1952 162 -2081 0
1952 -162 -2081 0
-2092 163 -2081 0
2092 -163 -2081 0
-2093 270 -2081 0
2093 -270 -2081 0
-1954 386 -2081 0
1954 -386 -2081 0
-2094 11 -2081 0
2094 -11 -2081 0
-2095 271 -2081 0
2095 -271 -2081 0
-2096 167 -2081 0
2096 -167 -2081 0
-2097 170 -2081 0
2097 -170 -2081 0
-1958 171 -2081 0
1958 -171 -2081 0
-2098 172 -2081 0
2098 -172 -2081 0
-2099 273 -2081 0
2099 -273 -2081 0
-2100 12 -2081 0
2100 -12 -2081 0
-2101 174 -2081 0
2101 -174 -2081 0
-2102 274 -2081 0
2102 -274 -2081 0
-1963 387 -2081 0
1963 -387 -2081 0
-2103 176 -2081 0
2103 -176 -2081 0
-2104 153 -2081 0
2104 -153 -2081 0
-1966 388 -2081 0
1966 -388 -2081 0
-2105 157 -2081 0
2105 -157 -2081 0
-2106 267 -2081 0
2106 -267 -2081 0
-2107 268 -2081 0
2107 -268 -2081 0
-2108 269 -2081 0
2108 -269 -2081 0
-2109 161 -2081 0
2109 -161 -2081 0
-1970 389 -2081 0
1970 -389 -2081 0
-2110 164 -2081 0
2110 -164 -2081 0
-2111 165 -2081 0
2111 -165 -2081 0
-2112 166 -2081 0
2112 -166 -2081 0
-2113 168 -2081 0
2113 -168 -2081 0
-2114 169 -2081 0
2114 -169 -2081 0
-2115 272 -2081 0
2115 -272 -2081 0
-2116 173 -2081 0
2116 -173 -2081 0
-2117 175 -2081 0
2117 -175 -2081 0
-2118 13 -2081 0
2118 -13 -2081 0
-2119 603 -2081 0
2119 -603 -2081 0
-1979 390 -2081 0
1979 -390 -2081 0
-2120 177 -2081 0
2120 -177 -2081 0
-2121 14 -2081 0
2121 -14 -2081 0
-2122 178 -2081 0
2122 -178 -2081 0
-1995 2150 0
-2150 1995 0
a 2081 0
